! B3LYP D4 6-31+G(d,p) def2/J RIJCOSX Opt Freq

* xyzfile 0 1 Mol_CCO_UFF.xyz

