! B3LYP D4 6-31+G(d,p) def2/J RIJCOSX Opt Freq

* xyzfile 0 1 Mol_C123C_OCCO2_OCCO3_CCCC1_UFF.xyz

