! B3LYP 6-31+G(d,p) def2/J RIJCOSX NMR

* xyzfile 0 1 Mol_C12_OCCO2_C2_OCCO2_CCCC1_UFF.xyz

