lattice_vector  12.023265316   0.000000000  -0.389473637
lattice_vector   0.000000000  12.321412841   0.000000000
lattice_vector  -1.985553101   0.000000000   3.607190472
atom_frac      0.1490019433        0.2119861416        0.0052356805    C
atom_frac      0.8509980567        0.7880138584        0.9947643195    C
atom_frac      0.3509980567        0.7119861416        0.9947643195    C
atom_frac      0.6490019433        0.2880138584        0.0052356805    C
atom_frac      0.1791550284        0.0132219604        0.0331352608    C
atom_frac      0.8208449716        0.9867780396        0.9668647392    C
atom_frac      0.3208449716        0.5132219604        0.9668647392    C
atom_frac      0.6791550284        0.4867780396        0.0331352608    C
atom_frac      0.3016782872        0.0300811148        0.0622330979    C
atom_frac      0.6983217128        0.9699188852        0.9377669021    C
atom_frac      0.1983217128        0.5300811148        0.9377669021    C
atom_frac      0.8016782872        0.4699188852        0.0622330979    C
atom_frac      0.3408573142        0.1336034517        0.0574557071    C
atom_frac      0.6591426858        0.8663965483        0.9425442929    C
atom_frac      0.1591426858        0.6336034517        0.9425442929    C
atom_frac      0.8408573142        0.3663965483        0.0574557071    C
atom_frac      0.4318111086        0.1529371622        0.0716640790    H
atom_frac      0.5681888914        0.8470628378        0.9283359210    H
atom_frac      0.0681888914        0.6529371622        0.9283359210    H
atom_frac      0.9318111086        0.3470628378        0.0716640790    H
atom_frac      0.2982121023        0.2991808238        0.0120698578    H
atom_frac      0.7017878977        0.7008191762        0.9879301422    H
atom_frac      0.2017878977        0.7991808238        0.9879301422    H
atom_frac      0.7982121023        0.2008191762        0.0120698578    H
atom_frac      0.0212157903        0.0971007885        0.9894527347    H
atom_frac      0.9787842097        0.9028992115        0.0105472653    H
atom_frac      0.4787842097        0.5971007885        0.0105472653    H
atom_frac      0.5212157903        0.4028992115        0.9894527347    H
atom_frac      0.3598021076        0.9600439589        0.0812130869    H
atom_frac      0.6401978924        0.0399560411        0.9187869131    H
atom_frac      0.1401978924        0.4600439589        0.9187869131    H
atom_frac      0.8598021076        0.5399560411        0.0812130869    H
atom_frac      0.2672273459        0.2213017136        0.0283499958    N
atom_frac      0.7327726541        0.7786982864        0.9716500042    N
atom_frac      0.2327726541        0.7213017136        0.9716500042    N
atom_frac      0.7672273459        0.2786982864        0.0283499958    N
atom_frac      0.1109681545        0.1063402188        0.0111707112    N
atom_frac      0.8890318455        0.8936597812        0.9888292888    N
atom_frac      0.3890318455        0.6063402188        0.9888292888    N
atom_frac      0.6109681545        0.3936597812        0.0111707112    N
atom_frac      0.0818665904        0.2911771730        0.9799839076    O
atom_frac      0.9181334096        0.7088228270        0.0200160924    O
atom_frac      0.4181334096        0.7911771730        0.0200160924    O
atom_frac      0.5818665904        0.2088228270        0.9799839076    O
atom_frac      0.1300789528        0.9217781797        0.0245183465    O
atom_frac      0.8699210472        0.0782218203        0.9754816535    O
atom_frac      0.3699210472        0.4217781797        0.9754816535    O
atom_frac      0.6300789528        0.5782218203        0.0245183465    O




