! B3LYP 6-31+G(d,p) def2/J RIJCOSX NMR

* xyzfile 0 1 opt.xyz

