! B3LYP D4 6-31+G(d,p) def2/J RIJCOSX Opt Freq

* xyzfile 0 1 Mol__Si_C_C_C_C_UFF.xyz

